c "973324.clq"
p edge 140 544
e 1 5
e 1 6
e 1 7
e 1 8
e 1 10
e 1 11
e 1 12
e 1 13
e 1 14
e 1 16
e 1 18
e 1 22
e 1 23
e 1 24
e 1 26
e 1 29
e 1 35
e 1 41
e 1 43
e 1 49
e 1 53
e 1 69
e 1 72
e 1 76
e 1 93
e 1 104
e 1 110
e 1 111
e 1 116
e 1 128
e 1 132
e 1 134
e 1 135
e 2 5
e 2 8
e 2 9
e 2 17
e 2 19
e 2 32
e 2 33
e 2 34
e 2 71
e 2 92
e 2 114
e 2 115
e 2 120
e 2 124
e 2 140
e 3 5
e 3 6
e 3 7
e 3 9
e 3 20
e 3 42
e 3 51
e 3 56
e 3 68
e 4 5
e 4 6
e 4 8
e 4 10
e 4 19
e 4 22
e 4 23
e 4 26
e 4 31
e 4 38
e 4 46
e 4 55
e 4 79
e 4 80
e 4 86
e 4 87
e 4 103
e 4 105
e 4 112
e 4 113
e 5 6
e 5 7
e 5 10
e 5 12
e 5 15
e 5 18
e 5 19
e 5 22
e 5 24
e 5 25
e 5 27
e 5 37
e 5 42
e 5 47
e 5 55
e 5 68
e 5 71
e 5 73
e 5 74
e 5 76
e 5 77
e 5 78
e 5 80
e 5 86
e 5 88
e 5 90
e 5 97
e 5 105
e 5 128
e 5 137
e 6 7
e 6 8
e 6 9
e 6 11
e 6 13
e 6 14
e 6 15
e 6 17
e 6 19
e 6 20
e 6 24
e 6 25
e 6 26
e 6 27
e 6 32
e 6 33
e 6 39
e 6 46
e 6 52
e 6 54
e 6 56
e 6 59
e 6 62
e 6 63
e 6 70
e 6 71
e 6 73
e 6 75
e 6 77
e 6 82
e 6 90
e 6 92
e 6 101
e 6 104
e 6 108
e 6 111
e 6 129
e 6 133
e 6 134
e 7 12
e 7 17
e 7 21
e 7 29
e 7 31
e 7 43
e 7 52
e 7 57
e 7 76
e 7 78
e 7 79
e 7 91
e 7 93
e 7 95
e 7 122
e 8 9
e 8 11
e 8 12
e 8 15
e 8 20
e 8 21
e 8 26
e 8 31
e 8 33
e 8 41
e 8 45
e 8 47
e 8 49
e 8 57
e 8 59
e 8 69
e 8 70
e 8 72
e 8 75
e 8 84
e 8 87
e 8 113
e 8 117
e 8 120
e 8 126
e 8 132
e 9 10
e 9 11
e 9 13
e 9 14
e 9 15
e 9 30
e 9 33
e 9 35
e 9 42
e 9 44
e 9 48
e 9 53
e 9 56
e 9 63
e 9 66
e 9 67
e 9 73
e 9 83
e 9 85
e 9 88
e 9 89
e 9 96
e 9 109
e 9 116
e 9 121
e 9 127
e 9 130
e 9 134
e 10 16
e 10 36
e 10 46
e 10 51
e 10 58
e 10 71
e 10 133
e 11 16
e 11 53
e 11 94
e 11 120
e 12 13
e 12 14
e 12 16
e 12 18
e 12 28
e 12 29
e 12 30
e 12 34
e 12 36
e 12 38
e 12 39
e 12 43
e 12 54
e 12 55
e 12 58
e 12 60
e 12 70
e 12 94
e 12 101
e 12 107
e 12 110
e 12 112
e 12 131
e 12 132
e 13 22
e 13 52
e 13 65
e 13 79
e 13 102
e 13 109
e 13 132
e 14 28
e 14 90
e 14 131
e 14 135
e 14 138
e 15 18
e 15 23
e 15 41
e 15 57
e 15 58
e 15 81
e 15 84
e 15 87
e 15 99
e 15 108
e 16 17
e 16 21
e 16 23
e 16 25
e 16 66
e 16 95
e 16 104
e 16 115
e 16 120
e 16 122
e 16 137
e 17 98
e 17 99
e 17 105
e 17 106
e 17 138
e 18 20
e 18 21
e 18 25
e 18 28
e 18 34
e 18 60
e 18 61
e 18 75
e 18 80
e 19 77
e 19 82
e 19 97
e 20 24
e 20 60
e 20 77
e 20 116
e 20 121
e 20 125
e 21 27
e 21 32
e 21 35
e 21 36
e 21 38
e 21 40
e 21 64
e 21 66
e 21 80
e 21 84
e 21 94
e 21 102
e 21 109
e 21 118
e 22 37
e 22 40
e 22 74
e 22 83
e 22 139
e 23 28
e 23 50
e 23 59
e 23 64
e 23 136
e 24 30
e 24 32
e 24 35
e 24 37
e 24 75
e 24 97
e 24 103
e 24 124
e 25 39
e 25 44
e 25 45
e 25 47
e 25 50
e 25 54
e 25 62
e 25 65
e 25 121
e 25 125
e 26 27
e 26 36
e 26 41
e 26 42
e 26 48
e 26 49
e 26 51
e 26 60
e 26 62
e 26 63
e 26 67
e 26 68
e 26 69
e 26 102
e 26 104
e 26 110
e 26 123
e 27 31
e 27 38
e 27 59
e 27 85
e 28 29
e 28 30
e 28 34
e 28 39
e 28 45
e 28 48
e 28 50
e 28 61
e 28 65
e 28 89
e 28 95
e 28 98
e 28 100
e 28 114
e 28 139
e 29 51
e 29 114
e 29 126
e 30 67
e 30 90
e 30 111
e 30 116
e 30 119
e 31 40
e 31 44
e 31 56
e 31 67
e 31 73
e 31 85
e 31 93
e 31 96
e 31 97
e 31 103
e 31 112
e 31 129
e 31 136
e 32 82
e 32 98
e 33 40
e 33 114
e 34 57
e 34 58
e 34 83
e 34 85
e 34 133
e 34 140
e 35 46
e 35 70
e 36 37
e 36 44
e 36 82
e 37 47
e 37 83
e 38 79
e 38 106
e 38 123
e 38 135
e 38 136
e 39 43
e 39 52
e 40 45
e 40 49
e 40 50
e 40 55
e 40 69
e 41 61
e 41 119
e 42 87
e 42 89
e 42 93
e 44 62
e 44 88
e 44 107
e 45 48
e 45 111
e 46 84
e 47 61
e 47 65
e 47 96
e 47 122
e 48 63
e 48 72
e 49 76
e 49 86
e 49 103
e 49 106
e 49 133
e 50 107
e 51 53
e 53 54
e 53 86
e 53 100
e 54 101
e 54 107
e 55 91
e 55 113
e 55 117
e 55 123
e 56 64
e 57 92
e 57 94
e 57 126
e 57 136
e 58 66
e 58 72
e 58 115
e 59 95
e 60 118
e 60 131
e 61 64
e 61 68
e 61 124
e 62 88
e 62 126
e 62 127
e 64 81
e 65 99
e 66 74
e 66 91
e 66 100
e 66 121
e 67 91
e 67 102
e 67 109
e 68 74
e 68 81
e 68 124
e 68 127
e 70 131
e 71 98
e 72 139
e 73 138
e 74 78
e 74 89
e 76 78
e 76 81
e 76 96
e 77 118
e 78 99
e 79 101
e 81 92
e 84 106
e 84 115
e 84 123
e 88 110
e 88 113
e 91 117
e 92 125
e 92 135
e 94 100
e 95 108
e 95 127
e 96 122
e 97 108
e 98 128
e 102 118
e 102 129
e 102 139
e 103 117
e 104 105
e 104 137
e 110 137
e 111 112
e 111 128
e 111 130
e 116 119
e 117 119
e 117 130
e 118 129
e 120 130
e 122 125
e 123 134
e 130 140
e 131 140
e 134 138
